(set-option :produce-models true)
(set-logic QF_UF)
(declare-fun p15() Bool)
(declare-fun p31() Bool)
(declare-fun p92() Bool)
(declare-fun p35() Bool)
(declare-fun p59() Bool)
(declare-fun p11() Bool)
(declare-fun p74() Bool)
(declare-fun p30() Bool)
(declare-fun p94() Bool)
(declare-fun p90() Bool)
(declare-fun p67() Bool)
(declare-fun p43() Bool)
(declare-fun p6() Bool)
(declare-fun p93() Bool)
(declare-fun p65() Bool)
(declare-fun p97() Bool)
(declare-fun p57() Bool)
(declare-fun p28() Bool)
(declare-fun p26() Bool)
(declare-fun p77() Bool)
(declare-fun p91() Bool)
(declare-fun p98() Bool)
(declare-fun p83() Bool)
(declare-fun p5() Bool)
(declare-fun p49() Bool)
(declare-fun p62() Bool)
(declare-fun p22() Bool)
(declare-fun p87() Bool)
(declare-fun p70() Bool)
(declare-fun p44() Bool)
(declare-fun p89() Bool)
(declare-fun p40() Bool)
(declare-fun p88() Bool)
(declare-fun p78() Bool)
(declare-fun p9() Bool)
(declare-fun p96() Bool)
(declare-fun p21() Bool)
(declare-fun p34() Bool)
(declare-fun p95() Bool)
(declare-fun p45() Bool)
(declare-fun p2() Bool)
(declare-fun p36() Bool)
(declare-fun p25() Bool)
(declare-fun p17() Bool)
(declare-fun p82() Bool)
(declare-fun p85() Bool)
(declare-fun p76() Bool)
(declare-fun p37() Bool)
(declare-fun p50() Bool)
(declare-fun p18() Bool)
(declare-fun p10() Bool)
(declare-fun p80() Bool)
(declare-fun p84() Bool)
(declare-fun p42() Bool)
(declare-fun p8() Bool)
(declare-fun p61() Bool)
(declare-fun p86() Bool)
(declare-fun p12() Bool)
(declare-fun p1() Bool)
(declare-fun p75() Bool)
(declare-fun p38() Bool)
(declare-fun p29() Bool)
(declare-fun p14() Bool)
(declare-fun p56() Bool)
(declare-fun p27() Bool)
(declare-fun p52() Bool)
(declare-fun p20() Bool)
(declare-fun p64() Bool)
(declare-fun p23() Bool)
(declare-fun p68() Bool)
(declare-fun p71() Bool)
(declare-fun p81() Bool)
(declare-fun p4() Bool)
(declare-fun p13() Bool)
(declare-fun p7() Bool)
(declare-fun p63() Bool)
(declare-fun p66() Bool)
(declare-fun p79() Bool)
(declare-fun p60() Bool)
(declare-fun p3() Bool)
(declare-fun p47() Bool)
(declare-fun p0() Bool)
(declare-fun p53() Bool)
(declare-fun p48() Bool)
(declare-fun p72() Bool)
(declare-fun p55() Bool)
(declare-fun p51() Bool)
(declare-fun p19() Bool)
(declare-fun p32() Bool)
(declare-fun p24() Bool)
(declare-fun p73() Bool)
(declare-fun p99() Bool)
(declare-fun p54() Bool)
(declare-fun p41() Bool)
(declare-fun p33() Bool)
(declare-fun p46() Bool)
(declare-fun p69() Bool)
(declare-fun p58() Bool)
(declare-fun p16() Bool)
(declare-fun p39() Bool)
(assert
(and (or (not p15) (not p31) (not p92)) (or p35 (not p59) (not p11)) (or p74 p30 (not p94)) (or p90 p67 p43) (or (not p6) p93 p65) (or (not p94) p97 p57) (or (not p28) (not p26) (not p77)) (or p91 p28 p98) (or p77 (not p83) p5) (or p49 (not p62) (not p83)) (or (not p22) (not p31) (not p87)) (or p31 (not p70) (not p44)) (or p89 p40 (not p88)) (or p98 (not p5) (not p78)) (or p9 (not p96) p21) (or p44 (not p34) (not p95)) (or (not p21) (not p45) p94) (or (not p2) p36 (not p25)) (or p17 (not p82) p85) (or (not p76) p37 (not p83)) (or p50 p18 p67) (or (not p82) p10 p50) (or p94 p80 p84) (or p70 (not p92) (not p65)) (or p18 (not p42) p8) (or p61 p44 p43) (or p6 p40 (not p35)) (or (not p86) p43 p67) (or p11 p35 (not p12)) (or p36 (not p1) p75) (or p38 p2 (not p29)) (or (not p86) (not p6) (not p14)) (or p61 (not p56) (not p12)) (or (not p25) (not p67) (not p77)) (or (not p27) p52 p20) (or (not p96) (not p45) p64) (or p76 (not p23) p62) (or p84 (not p93) (not p45)) (or (not p62) (not p20) p26) (or p25 (not p15) (not p35)) (or p68 (not p71) p70) (or (not p71) p38 p5) (or (not p88) p38 p81) (or (not p4) p13 (not p9)) (or (not p15) (not p43) (not p83)) (or p34 (not p7) (not p31)) (or (not p71) p63 p64) (or (not p66) (not p77) (not p21)) (or (not p61) (not p26) p12) (or (not p66) p74 p26) (or p68 p79 (not p60)) (or p1 p45 (not p96)) (or (not p84) p3 p23) (or (not p27) p23 (not p14)) (or p62 (not p47) (not p49)) (or p7 p10 (not p0)) (or (not p3) (not p62) (not p91)) (or p42 p96 (not p10)) (or p62 (not p74) (not p5)) (or p36 (not p27) (not p45)) (or (not p56) (not p88) (not p7)) (or (not p68) (not p53) p25) (or p22 p61 p48) (or p72 (not p55) (not p35)) (or (not p18) (not p44) (not p3)) (or p63 (not p14) p8) (or (not p72) p51 p23) (or (not p4) (not p96) p76) (or (not p77) (not p18) (not p14)) (or (not p94) p81 (not p8)) (or p82 p19 (not p59)) (or p4 (not p84) (not p4)) (or (not p77) p89 (not p18)) (or (not p87) p17 (not p51)) (or p20 p82 p6) (or p11 (not p49) (not p34)) (or p90 p10 p40) (or p49 p89 p26) (or (not p15) p85 p49) (or p43 (not p37) p89) (or p70 p52 (not p32)) (or (not p12) p97 p6) (or (not p45) p19 (not p25)) (or (not p15) p49 p8) (or p26 p76 (not p37)) (or (not p66) (not p50) (not p47)) (or p31 p96 (not p24)) (or (not p83) (not p49) (not p56)) (or (not p24) p36 (not p79)) (or p72 (not p61) (not p3)) (or (not p22) (not p22) (not p88)) (or (not p15) p74 p73) (or p93 p52 p9) (or (not p42) p48 (not p47)) (or (not p21) p42 (not p87)) (or p83 (not p30) (not p92)) (or p86 p22 (not p94)) (or p99 p8 (not p81)) (or (not p80) p27 (not p54)) (or p19 (not p48) (not p96)) (or p72 (not p7) (not p85)) (or p17 p27 p50) (or (not p19) (not p54) p80) (or (not p80) p55 (not p27)) (or p49 (not p44) p9) (or (not p57) (not p6) (not p38)) (or (not p59) p25 p27) (or (not p12) p29 (not p20)) (or p15 p98 p75) (or p24 (not p19) (not p79)) (or (not p17) p83 p65) (or (not p99) p80 p99) (or (not p80) p81 (not p85)) (or p63 p41 p2) (or p36 (not p30) (not p41)) (or p54 (not p64) p96) (or p21 (not p12) p40) (or p8 (not p1) p78) (or p41 (not p44) (not p37)) (or (not p41) (not p53) (not p33)) (or p56 p74 (not p3)) (or p46 (not p57) (not p55)) (or (not p31) p40 (not p73)) (or (not p25) (not p62) p71) (or p5 p15 (not p72)) (or p93 p52 (not p14)) (or p45 (not p84) p63) (or (not p4) (not p82) p33) (or (not p45) p50 (not p1)) (or p71 p74 p96) (or p9 (not p64) p18) (or (not p98) (not p53) (not p98)) (or p22 (not p42) (not p70)) (or p33 (not p9) (not p83)) (or p70 (not p98) (not p40)) (or (not p55) p10 (not p53)) (or (not p2) (not p48) (not p81)) (or (not p78) (not p49) p54) (or p97 (not p37) (not p7)) (or (not p95) p46 p54) (or (not p66) (not p31) p56) (or (not p67) p20 p62) (or (not p74) p88 p0) (or (not p59) p35 p94) (or (not p7) p35 p12) (or p50 p27 (not p46)) (or (not p69) (not p64) (not p31)) (or p34 (not p6) p95) (or p13 (not p96) p44) (or p81 p58 (not p69)) (or p33 p23 (not p4)) (or p77 p17 p87) (or (not p89) p52 (not p44)) (or p12 p23 p30) (or p76 (not p64) p7) (or p99 (not p29) (not p92)) (or p21 (not p97) p82) (or (not p27) (not p58) p24) (or p6 p3 p55) (or (not p38) (not p45) p62) (or p83 (not p92) (not p35)) (or (not p70) p43 p12) (or (not p77) (not p30) (not p85)) (or p47 (not p23) p61) (or (not p38) (not p87) p63) (or (not p69) (not p53) (not p32)) (or (not p53) p59 (not p49)) (or (not p84) (not p75) p58) (or p69 (not p1) (not p1)) (or p44 p71 (not p95)) (or (not p21) (not p53) p22) (or p60 p54 p68) (or (not p58) p64 (not p7)) (or p1 p94 p15) (or (not p52) p61 p17) (or (not p82) (not p29) (not p16)) (or p84 p93 (not p65)) (or p39 (not p31) p54) (or (not p44) p21 (not p19)) (or (not p87) (not p4) (not p26)) (or (not p29) p97 (not p33)) (or (not p44) (not p71) (not p38)) (or p1 p0 (not p97)) (or p72 (not p49) (not p86)) (or p82 (not p28) p93) (or (not p34) (not p64) p11) (or p43 p2 p38) (or (not p93) p38 (not p60)) (or (not p5) p93 (not p53)) (or p25 (not p38) p55) (or p46 (not p28) (not p29)) (or (not p65) p92 p67) (or p32 (not p85) (not p37)) (or (not p76) p16 (not p54)) (or (not p13) p13 (not p97)) (or p79 p86 p22) (or p65 (not p93) p23) (or (not p67) p89 (not p76)) (or p51 p11 p53) (or p56 p78 p49) (or (not p94) p44 (not p11)) (or (not p29) p12 p24) (or p0 (not p24) p12) (or (not p2) (not p51) (not p51)) (or p52 (not p35) p64) (or (not p4) p28 (not p66)) (or (not p78) (not p85) p30) (or p45 p72 p59) (or p45 (not p28) p63) (or (not p34) p12 p93) (or (not p20) p69 (not p54)) (or p37 p56 p24) (or (not p73) p56 p31) (or p58 (not p50) (not p79)) (or (not p60) (not p92) p79) (or p86 (not p79) p78) (or p23 p44 (not p67)) (or (not p20) (not p38) p39) (or (not p14) p94 (not p23)) (or p11 p17 p65) (or (not p68) (not p96) p11) (or p50 p92 p74) (or p91 p43 p15) (or (not p70) (not p95) p48) (or p77 (not p64) p58) (or p21 (not p68) p73) (or (not p65) p25 p98) (or (not p89) (not p75) (not p24)) (or p66 p90 (not p26)) (or (not p96) (not p31) p47) (or (not p72) (not p49) (not p56)) (or (not p25) (not p73) p84) (or p30 (not p24) (not p59)) (or p72 p30 p22) (or p23 (not p16) (not p46)) (or (not p95) (not p47) p75) (or p75 p14 p3) (or (not p77) p77 (not p44)) (or p13 (not p77) p73) (or p43 p13 (not p92)) (or (not p15) (not p10) p54) (or (not p69) (not p22) p28) (or p42 p88 (not p35)) (or p52 p96 (not p33)) (or (not p58) p32 (not p45)) (or p83 (not p80) p14) (or (not p59) (not p58) p11) (or (not p57) p69 p30) (or (not p35) (not p87) (not p13)) (or p39 (not p45) p46) (or (not p54) (not p80) (not p41)) (or (not p33) (not p55) (not p61)) (or p46 (not p30) (not p22)) (or p16 (not p40) (not p93)) (or (not p4) (not p15) p62) (or p85 (not p81) (not p25)) (or (not p28) p77 p83) (or (not p18) p39 (not p71)) (or p88 (not p38) p2) (or p23 (not p56) (not p56)) (or (not p6) p76 p56) (or p87 (not p17) p17) (or p60 p51 p24) (or p83 p74 (not p42)) (or p47 p81 (not p86)) (or p93 p91 (not p0)) (or p28 (not p84) (not p87)) (or p77 p60 p95) (or p44 (not p66) p56) (or p59 p70 (not p67)) (or p99 p77 (not p34)) (or p0 p7 p71) (or (not p82) (not p69) (not p87)) (or p41 p77 p82) (or p54 p82 (not p78)) (or p76 p31 (not p10)) (or p44 (not p60) (not p85)) (or (not p94) p37 (not p82)) (or p88 (not p31) p29) (or (not p55) p40 (not p92)) (or (not p72) p50 (not p80)) (or (not p97) (not p96) p27) (or (not p87) p65 (not p96)) (or (not p67) p26 (not p16)) (or p49 p39 p76) (or (not p68) (not p25) (not p96)) (or p1 p53 p90) (or p24 p42 (not p82)) (or (not p98) p93 p43) (or p65 (not p62) p37) (or p84 p92 p3) (or (not p60) (not p43) p53) (or (not p72) p63 (not p41)) (or p50 p24 (not p86)) (or (not p96) p33 p7) (or (not p25) (not p73) p46) (or (not p10) (not p48) (not p56)) (or (not p8) p87 p67) (or p15 p31 p11) (or (not p37) p33 (not p15)) (or p91 p90 (not p51)) (or (not p84) (not p11) p41) (or p83 p68 p23) (or p41 (not p96) (not p1)) (or p11 p68 (not p14)) (or (not p15) (not p18) p25) (or p20 p47 (not p96)) (or (not p72) p4 p34) (or p18 (not p31) (not p14)) (or (not p56) p49 p44) (or p30 p38 p29) (or (not p84) p43 p78) (or (not p69) p55 p15) (or p8 (not p27) (not p11)) (or (not p48) (not p55) (not p12)) (or (not p45) p12 (not p21)) (or p70 p11 (not p99)) (or (not p81) p77 (not p92)) (or (not p23) (not p4) p14) (or p21 p88 p10) (or p15 p67 p27) (or (not p72) p56 (not p50)) (or p95 p87 (not p16)) (or p51 (not p31) (not p79)) (or (not p81) (not p5) p65) (or p73 (not p8) p14) (or (not p71) (not p16) p2) (or p47 (not p7) p13) (or p44 (not p56) (not p76)) (or p74 (not p29) p55) (or p14 p67 p75) (or p99 (not p78) (not p11)) (or p39 p0 p52) (or (not p33) p56 p29) (or (not p85) p22 (not p51)) (or p13 p41 p52) (or p0 p20 p90) (or (not p70) p73 (not p43)) (or (not p24) (not p55) p51) (or p38 (not p82) (not p38)) (or p81 (not p42) p72) (or p72 (not p36) p54) (or p93 p4 p87) (or (not p91) p51 p54) (or p22 p12 p31) (or p39 (not p10) (not p62)) (or (not p51) p87 p58) (or p54 (not p59) (not p48)) (or p27 (not p9) p81) (or p8 (not p35) (not p95)) (or p77 (not p13) (not p36)) (or p60 (not p49) (not p79)) (or p20 p99 p78) (or p2 (not p94) p88) (or p46 p47 (not p41)) (or (not p70) p85 (not p75)) (or (not p64) p21 (not p84)) (or p62 (not p49) p45) (or (not p94) (not p24) (not p57)) (or (not p50) (not p12) (not p80)) (or (not p83) p81 p99) (or p85 (not p17) p44) (or (not p35) p3 (not p2)) (or (not p63) (not p20) p40) (or (not p56) p38 (not p3)) (or p5 (not p45) p15) (or p46 p52 (not p1)) (or (not p33) p29 p76) (or p58 p56 p36) (or (not p22) p13 p72) (or p29 p55 p81) (or (not p32) p94 (not p33)) (or p76 p81 (not p23)) (or p7 (not p38) p74) (or (not p45) (not p88) p34) (or (not p32) p36 p22) (or p31 p0 (not p55)) (or p22 p7 p91) (or (not p50) (not p38) p81) (or p72 (not p29) p18) (or (not p52) p70 (not p36)) (or p57 p34 p35) (or p71 (not p79) (not p82)) (or (not p48) (not p30) (not p55)) (or (not p99) (not p29) (not p85)) (or (not p83) p59 p48) (or (not p25) p57 p31) (or p11 (not p39) (not p36)) (or p2 (not p70) (not p22)) (or (not p83) (not p34) (not p88)) (or (not p27) (not p96) (not p80)) (or p21 p76 p77) (or (not p45) (not p75) (not p12)) (or (not p43) (not p56) p45) (or p51 (not p55) (not p44)) (or (not p41) p21 (not p38)) (or p23 p81 (not p52)) (or (not p13) p10 (not p80)) (or (not p13) (not p86) (not p10)) (or (not p36) (not p90) p27) (or p21 (not p88) p27) (or p95 p18 p17) (or (not p16) (not p37) (not p46)) (or p88 (not p77) p67) (or p72 (not p27) p88) (or (not p69) p67 p18) (or p71 (not p19) (not p59)) (or p92 (not p73) p99) (or p80 (not p44) p36) (or (not p9) (not p91) p3) (or (not p38) p18 (not p61)) (or p57 p81 (not p14)) (or (not p56) (not p18) p55) (or (not p55) (not p79) (not p99)) (or (not p34) p19 (not p13)) (or p57 (not p26) p47) (or p85 (not p2) (not p76)) (or (not p59) p31 (not p33)) (or (not p67) (not p83) (not p25)) (or p99 p58 (not p55)))
)
(check-sat)
(get-model)
